language ESSENCE' 1.0
$ loaded file: carseqdata/csplib-instance-20
letting numcars=200
letting numclasses=26
letting numoptions=5
letting optMax=[1, 2, 1, 2, 1]
letting windowSize=[2, 3, 3, 5, 5]
letting numberPerClass=[3, 4, 72, 8, 1, 10, 30, 3, 10, 5, 1, 6, 2, 1, 1, 3, 1, 1, 13, 15, 2, 1, 1, 1, 1, 4]
letting optionsRequired=[[1, 0, 1, 0, 0], [1, 0, 0, 1, 0], [0, 1, 0, 0, 0], [0, 1, 0, 1, 0], [1, 0, 0, 1, 1], [1, 1, 0, 0, 0], [0, 0, 1, 0, 0], [1, 1, 1, 1, 0], [0, 0, 0, 0, 1], [0, 1, 1, 0, 0], [1, 0, 1, 0, 1], [1, 1, 0, 1, 0], [0, 0, 1, 0, 1], [1, 1, 0, 0, 1], [1, 1, 1, 0, 1], [0, 0, 1, 1, 0], [1, 0, 0, 0, 1], [0, 0, 0, 1, 1], [0, 0, 0, 1, 0], [1, 0, 0, 0, 0], [0, 1, 1, 1, 0], [1, 0, 1, 1, 0], [1, 1, 0, 1, 1], [1, 1, 1, 0, 0], [0, 0, 1, 0, 1], [0, 1, 0, 0, 0]]
